(set-logic HORN)
(declare-fun state (Int (Array Int Int) (Array Int Int) (Array Int Int) Int Int (Array Int Int) (Array Int Int) Int Int Int Int Int Int Int Int Int Int Int Int Int Int Int Int Int Bool Bool Bool Bool Bool Int (Array Int Int)) Bool)
(assert (forall ((|A_15| Int) (|B_15| (Array Int Int)) (|C_15| (Array Int Int)) (|D_15| (Array Int Int)) (|E_15| Int) (|F_15| Int) (|G_15| (Array Int Int)) (|H_15| (Array Int Int)) (|I_15| Int) (|J_15| Int) (|K_15| Int) (|L_15| Int) (|M_15| Int) (|N_15| Int) (|O_15| Int) (|P_15| Int) (|Q_15| Int) (|R_15| Int) (|S_15| Int) (|T_15| Int) (|U_15| Int) (|V_15| Int) (|W_15| Int) (|X_15| Int) (|Y_15| Int) (|A1_9| Bool) (|.loc.5| Bool) (|.loc.6| Bool) (|.loc.7| Bool) (|.loc.8| Bool) (|B1_1| Int) (|A1_0| (Array Int Int)) (|.x.393| Int) (|.x.391| (Array Int Int)) (|.x.389| Int) (|.x.387| (Array Int Int)) (|.x.384| Int) (|.x.386| (Array Int Int)) (|.x.385| (Array Int Int)) (|Z_15| Bool) (|.x.398| Int) (|.x.400| Int) (|.x.402| Int) (|.x.403| Int) (|.loc.10| Bool) (|.loc.12| Bool) (|.loc.11| Bool) (|.x.406| Int) (|.x.395| Int) (|.x.407| Int) (|.loc.9| Bool) (|.x.401| Int) (|.x.399| Int) (|.x.397| Int) (|.x.396| Int) (|.x.404| Int) (|.x.390| (Array Int Int)) (|.x.388| Int) (|.x.392| Int) (|.x.394| Int) (|.x.405| Int) (|.x.408| Int) (|.xtv.1| Int) (|.xtv.2| (Array Int Int))) (=> (and (and (and (and .loc.6 (not .loc.5)) (not .loc.7)) (not .loc.8)) (and (and (and (and (= G_15 H_15) (not A1_9)) (= I_15 J_15)) (= B_15 C_15)) (= E_15 F_15))) (state |A_15| |B_15| |C_15| |D_15| |E_15| |F_15| |G_15| |H_15| |I_15| |J_15| |K_15| |L_15| |M_15| |N_15| |O_15| |P_15| |Q_15| |R_15| |S_15| |T_15| |U_15| |V_15| |W_15| |X_15| |Y_15| |A1_9| |.loc.5| |.loc.6| |.loc.7| |.loc.8| |B1_1| |A1_0|))))
(assert (forall ((|A_15| Int) (|B_15| (Array Int Int)) (|C_15| (Array Int Int)) (|D_15| (Array Int Int)) (|E_15| Int) (|F_15| Int) (|G_15| (Array Int Int)) (|H_15| (Array Int Int)) (|I_15| Int) (|J_15| Int) (|K_15| Int) (|L_15| Int) (|M_15| Int) (|N_15| Int) (|O_15| Int) (|P_15| Int) (|Q_15| Int) (|R_15| Int) (|S_15| Int) (|T_15| Int) (|U_15| Int) (|V_15| Int) (|W_15| Int) (|X_15| Int) (|Y_15| Int) (|A1_9| Bool) (|.loc.5| Bool) (|.loc.6| Bool) (|.loc.7| Bool) (|.loc.8| Bool) (|B1_1| Int) (|A1_0| (Array Int Int)) (|.x.393| Int) (|.x.391| (Array Int Int)) (|.x.389| Int) (|.x.387| (Array Int Int)) (|.x.384| Int) (|.x.386| (Array Int Int)) (|.x.385| (Array Int Int)) (|Z_15| Bool) (|.x.398| Int) (|.x.400| Int) (|.x.402| Int) (|.x.403| Int) (|.loc.10| Bool) (|.loc.12| Bool) (|.loc.11| Bool) (|.x.406| Int) (|.x.395| Int) (|.x.407| Int) (|.loc.9| Bool) (|.x.401| Int) (|.x.399| Int) (|.x.397| Int) (|.x.396| Int) (|.x.404| Int) (|.x.390| (Array Int Int)) (|.x.388| Int) (|.x.392| Int) (|.x.394| Int) (|.x.405| Int) (|.x.408| Int) (|.xtv.1| Int) (|.xtv.2| (Array Int Int))) (=> (and (state |A_15| |B_15| |C_15| |D_15| |E_15| |F_15| |G_15| |H_15| |I_15| |J_15| |K_15| |L_15| |M_15| |N_15| |O_15| |P_15| |Q_15| |R_15| |S_15| |T_15| |U_15| |V_15| |W_15| |X_15| |Y_15| |A1_9| |.loc.5| |.loc.6| |.loc.7| |.loc.8| |B1_1| |A1_0|) (let ((.def_42 (not .loc.5))) (let ((.def_44 (not .loc.7))) (let ((.def_46 (not .loc.8))) (let ((.def_76 (= B_15 .x.385))) (let ((.def_80 (= O_15 .x.398))) (let ((.def_83 (= Q_15 .x.400))) (let ((.def_86 (= S_15 .x.402))) (let ((.def_89 (= T_15 .x.403))) (let ((.def_104 (not .loc.6))) (let ((.def_108 (= A1_9 Z_15))) (let ((.def_113 (not .loc.10))) (let ((.def_117 (not .loc.11))) (let ((.def_120 (= L_15 0))) (let ((.def_125 (and .def_89 (and .def_86 (and .def_83 (and .def_76 .def_80)))))) (let ((.def_133 (not .loc.12))) (let ((.def_138 (= W_15 .x.406))) (let ((.def_140 (= L_15 .x.395))) (let ((.def_143 (= X_15 .x.407))) (let ((.def_156 (select D_15 S_15))) (let ((.def_160 (<= 100000 P_15))) (let ((.def_174 (not .loc.9))) (let ((.def_179 (= R_15 .x.401))) (let ((.def_181 (= P_15 .x.399))) (let ((.def_189 (and .def_76 .def_140))) (let ((.def_190 (and .def_80 .def_189))) (let ((.def_191 (and .def_83 .def_190))) (let ((.def_225 (and .def_140 (and A1_9 .def_76)))) (let ((.def_234 (and .loc.5 (and .def_143 (and .def_138 (and .def_89 (and .def_86 (and .def_179 (and .def_83 (and .def_181 (and .def_80 .def_225))))))))))) (let ((.def_252 (and .loc.5 (and .def_143 (and .def_138 (and .def_89 (and .def_86 (and .def_179 (and .def_83 (and .def_181 .def_190)))))))))) (let ((.def_272 (<= 100000 N_15))) (let ((.def_285 (= N_15 .x.397))) (let ((.def_287 (= M_15 .x.396))) (let ((.def_350 (= G_15 .x.390))) (let ((.def_352 (= E_15 .x.388))) (let ((.def_355 (= I_15 .x.392))) (let ((.def_358 (= K_15 .x.394))) (let ((.def_362 (= V_15 .x.405))) (let ((.def_365 (= Y_15 .x.408))) (let ((.def_375 (select .x.387 .x.402))) (let ((.def_423 (and .def_355 (and .def_350 (and .def_76 .def_352))))) (let ((.def_453 (or A1_9 (and (= B1_1 (select .def_156 (+ (* 4 N_15) O_15))) (not .def_272))))) (and (and (= J_15 .x.393) (and (= H_15 .x.391) (and (= F_15 .x.389) (and (= D_15 .x.387) (and (= A_15 .x.384) (= C_15 .x.386)))))) (or (or (or (and (or (or (or (and (or (or (or (or (or (or (and (or (and (or (and (or (and .def_46 (and .loc.7 (and .loc.6 (and .loc.5 (and (and (and (and (and .def_76 Z_15) .def_80) .def_83) .def_86) .def_89))))) (and (or A1_9 (and (= .x.403 0) (= .x.385 (store B_15 S_15 0)))) (and (and (or Z_15 (= .x.400 .x.403)) (and .def_42 (and (and .loc.8 .def_44) .def_104))) .def_108))) (and (and .def_113 .loc.12) .def_117)) (and (or A1_9 .def_120) (and (and .def_108 (and .def_42 (and .loc.11 (and .loc.10 (and .def_46 (and .loc.7 (and .loc.6 .def_125))))))) .def_133))) (and (and (and .def_138 .def_140) .def_143) .loc.9)) (and (or A1_9 (and (= .x.406 (ite (<= .x.407 K_15) 1 0)) (and (= .x.406 .x.395) (and (= .x.407 (select .def_156 (+ O_15 (* 4 P_15)))) (not .def_160))))) (and (and .def_133 (and .def_108 (and .def_104 (and .loc.11 (and .loc.10 (and .def_46 (and .loc.7 (and .loc.5 .def_125)))))))) .def_174))) (and .def_179 .def_181)) (and (or Z_15 (= (+ P_15 (* (- 1) .x.399)) (- 1))) (and .def_133 (and .def_108 (and .def_42 (and .def_104 (and .def_44 (and .def_113 (and .loc.11 (and .loc.9 (and .def_46 (and .def_138 (and .def_89 (and .def_86 .def_191)))))))))))))) (and (or A1_9 (= .x.399 0)) (and .def_133 (and .def_108 (and .def_42 (and .def_104 (and .def_113 (and .loc.11 (and .loc.9 (and .def_46 (and .loc.7 (and .def_143 (and .def_138 (and .def_89 (and .def_86 (and .def_179 .def_191)))))))))))))))) (and .def_174 (and .def_108 (and .def_104 (and .def_117 (and .def_113 (and .loc.12 (and .def_46 (and .loc.7 .def_234))))))))) (and (or A1_9 .def_160) (and .def_174 (and .def_108 (and .def_104 (and .def_117 (and .def_113 (and .loc.12 (and .def_46 (and .loc.7 .def_252)))))))))) (and .def_174 (and .def_133 (and .def_108 (and .def_44 (and .def_113 (and .loc.11 (and .def_46 (and .loc.6 .def_234))))))))) (and (or A1_9 .def_272) (and .def_174 (and .def_133 (and .def_108 (and .def_44 (and .def_113 (and .loc.11 (and .def_46 (and .loc.6 .def_252)))))))))) (and .def_285 .def_287)) (and (or A1_9 (= (+ N_15 (* (- 1) .x.397)) (- 1))) (and .def_133 (and .def_108 (and .def_104 (and .def_44 (and .def_117 (and .loc.10 (and .loc.9 (and .def_46 .def_252)))))))))) (and (or A1_9 (not .def_120)) (and .def_174 (and .def_133 (and .def_108 (and .def_42 (and .def_117 (and .def_113 (and .def_46 (and .loc.7 (and .loc.6 (and .def_143 (and .def_138 (and .def_89 (and .def_86 (and .def_179 (and .def_83 (and .def_181 (and .def_80 (and .def_285 (and .def_189 .def_287))))))))))))))))))))) (and .def_174 (and .def_133 (and .def_108 (and .def_117 (and .def_113 (and .def_46 (and .loc.7 (and .loc.6 (and .loc.5 (and .def_143 (and .def_138 (and .def_89 (and .def_86 (and .def_179 (and .def_83 (and .def_181 (and .def_80 (and .def_285 (and .def_225 .def_287)))))))))))))))))))) (and (and (and (= U_15 .x.404) (and (and (and .def_350 .def_352) .def_355) .def_358)) .def_362) .def_365)) (and (or A1_9 (and (and (= .x.392 0) (= .x.388 0)) (= A1_0 (store B_15 0 0)))) (and (or Z_15 (and (and (and (and (and (and (and (= .x.394 (select .def_375 .x.398)) (not (<= .x.384 .x.402))) (= .x.398 0)) (= .x.397 1)) (not (= .x.402 0))) (= (select A1_0 .x.402) 0)) (= .x.390 (store G_15 .x.402 400000))) (= .x.385 (store A1_0 .x.402 1)))) (and .def_133 (and .def_108 (and .def_42 (and .def_44 (and .def_117 (and .loc.10 (and .loc.9 (and .def_46 (and .loc.6 (and .def_138 (and .def_83 .def_140)))))))))))))) (and (and (or Z_15 (and (not (<= B1_1 K_15)) (= .x.394 (select .def_375 (+ .x.398 (* 4 .x.397)))))) (and .def_133 (and .def_108 (and .def_44 (and .def_117 (and .def_113 (and .loc.9 (and .def_46 (and .loc.6 (and .loc.5 (and .def_143 (and .def_138 (and .def_362 (and .def_89 (and .def_86 (and .def_179 (and .def_83 (and .def_181 (and .def_80 (and .def_285 (and .def_287 (and .def_140 .def_423)))))))))))))))))))))) .def_453)) (and (or Z_15 (<= B1_1 .x.394)) (and .def_453 (and .def_133 (and .def_108 (and .def_44 (and .def_117 (and .def_113 (and .loc.9 (and .def_46 (and .loc.6 (and .loc.5 (and .def_365 (and .def_143 (and .def_138 (and .def_362 (and .def_89 (and .def_86 (and .def_179 (and .def_83 (and .def_181 (and .def_80 (and .def_285 (and .def_287 (and .def_140 (and .def_358 .def_423))))))))))))))))))))))))))))))))))))))))))))))))))))))))))))))))))))) (state |.x.384| |.x.385| |.x.386| |.x.387| |.x.388| |.x.389| |.x.390| |.x.391| |.x.392| |.x.393| |.x.394| |.x.395| |.x.396| |.x.397| |.x.398| |.x.399| |.x.400| |.x.401| |.x.402| |.x.403| |.x.404| |.x.405| |.x.406| |.x.407| |.x.408| |Z_15| |.loc.9| |.loc.10| |.loc.11| |.loc.12| |.xtv.1| |.xtv.2|))))
(assert (forall ((|A_15| Int) (|B_15| (Array Int Int)) (|C_15| (Array Int Int)) (|D_15| (Array Int Int)) (|E_15| Int) (|F_15| Int) (|G_15| (Array Int Int)) (|H_15| (Array Int Int)) (|I_15| Int) (|J_15| Int) (|K_15| Int) (|L_15| Int) (|M_15| Int) (|N_15| Int) (|O_15| Int) (|P_15| Int) (|Q_15| Int) (|R_15| Int) (|S_15| Int) (|T_15| Int) (|U_15| Int) (|V_15| Int) (|W_15| Int) (|X_15| Int) (|Y_15| Int) (|A1_9| Bool) (|.loc.5| Bool) (|.loc.6| Bool) (|.loc.7| Bool) (|.loc.8| Bool) (|B1_1| Int) (|A1_0| (Array Int Int)) (|.x.393| Int) (|.x.391| (Array Int Int)) (|.x.389| Int) (|.x.387| (Array Int Int)) (|.x.384| Int) (|.x.386| (Array Int Int)) (|.x.385| (Array Int Int)) (|Z_15| Bool) (|.x.398| Int) (|.x.400| Int) (|.x.402| Int) (|.x.403| Int) (|.loc.10| Bool) (|.loc.12| Bool) (|.loc.11| Bool) (|.x.406| Int) (|.x.395| Int) (|.x.407| Int) (|.loc.9| Bool) (|.x.401| Int) (|.x.399| Int) (|.x.397| Int) (|.x.396| Int) (|.x.404| Int) (|.x.390| (Array Int Int)) (|.x.388| Int) (|.x.392| Int) (|.x.394| Int) (|.x.405| Int) (|.x.408| Int) (|.xtv.1| Int) (|.xtv.2| (Array Int Int))) (=> (state |A_15| |B_15| |C_15| |D_15| |E_15| |F_15| |G_15| |H_15| |I_15| |J_15| |K_15| |L_15| |M_15| |N_15| |O_15| |P_15| |Q_15| |R_15| |S_15| |T_15| |U_15| |V_15| |W_15| |X_15| |Y_15| |A1_9| |.loc.5| |.loc.6| |.loc.7| |.loc.8| |B1_1| |A1_0|) (not (and A1_9 (and .loc.8 (and (not .loc.7) (and .loc.5 (not .loc.6)))))))))
(check-sat)
